M+/Instances/S1-5-M+/S1-10-5-3-l-M+.txt
     100       5    0.10
       1       3       1       1       3      11      12      16      13      11       2
       2       3       1       2       2      12      11      16       8       4       2
       1       2       3       1       1       5       8      11      12      11       3
       3       3       2       2       2      10       8       4       8      15       3
       3       1       1       3       3      12       5       5      13       7       3
       1       1       2       3       1       5      16       2       0       9       2
       2       3       3       3       3      11      11       9       9       3       3
       1       3       2       1       3       4       6       2       4       4       3
       2       1       1       1       3      14      15       8       9       4       2
       3       1       1       2       1       9       4      12       2       1       2
       1       3       1       2       2      13       4      13      10      16       2
       2       1       3       1       2       1      11       0       3       4       3
       3       1       1       2       3      16      12      14      16       5       2
       2       2       2       1       2       7       2       9       2       1       2
       1       1       1       1       3      13      16       5       6       6       2
       1       1       1       2       3       9       1      11       1       8       2
       3       3       1       1       2       9      13      11      11      11       3
       2       1       1       2       3       1      13       8       7      14       2
       3       3       1       1       2       7       5      16      13      13       2
       3       2       2       3       1       2       2      16      14       4       3
       1       1       3       3       2       5       7      14       9       1       2
       1       2       3       2       1       2       8      12       4      12       2
       3       1       2       2       3       3       6      15      14      11       2
       2       2       1       2       3       4       1      16       6       4       2
       1       1       3       1       3      16       2       8      11      11       3
       3       3       1       3       2      11      12      16       9       8       2
       1       1       1       1       1       3       9      11       5       2       3
       2       1       2       1       1       3       4      16       7      13       2
       1       1       1       1       3       1      15      15      15       3       2
       2       2       2       1       3       9       2       0      11       4       3
       1       2       1       1       1       8       8      11       1      15       2
       3       3       2       2       2       2      15       6      14      12       3
       1       1       3       3       1       4       5       3       6      14       2
       2       2       2       1       2       5      13      11       1       4       2
       3       1       1       2       2      13      13       1      15       3       2
       1       3       3       3       2       7      12       9      11      14       2
       2       2       1       2       1       3       8       5      12      12       2
       3       3       1       3       1      11       1      12      10       3       3
       1       3       3       2       2       4       2       2       5      12       2
       3       3       1       1       2      15      16       9       6       9       3
       3       2       1       1       1       5       2       9      13       8       3
       2       3       3       3       1       4      10       6       9      14       2
       1       2       3       2       2       5      13      15       4       9       2
       1       1       1       2       2       5       0       7      16       4       3
       3       1       1       1       1      15      12      15       7       7       2
       2       3       2       2       1      12       6       9      11      15       2
       1       2       3       1       1       2       1       8       9       2       2
       1       2       3       1       3       4      11       5       9       2       2
       1       2       3       2       1      11      15       1       6       2       2
       3       1       1       1       3       9       2       6      14       4       3
       1       1       2       1       2       1      10       6       6       8       2
       2       1       2       1       3      13      13       1      14      15       2
       3       3       2       2       2      12       1      16      15       4       3
       1       1       2       2       2      11       2       6       2       0       2
       2       1       3       2       2       5      12      15       1       4       2
       1       1       1       3       2       2       2       4       3      11       3
       2       1       2       3       3       8      13      10      11       9       2
       3       2       1       2       2       1      10       1       4      10       2
       3       1       1       1       3       8      12       2      11       1       2
       3       1       3       2       1      13      10       5       8      14       2
       1       2       2       2       3       6      10       3      12       5       2
       2       3       2       1       1      14       9       3      14       6       3
       3       1       2       2       2      16      12       1      13       2       2
       2       3       2       3       1       0       8       9       7       5       2
       3       2       1       3       2      10       8      15       6       2       3
       1       1       3       2       2      12      13      16       8      11       3
       1       3       2       2       1      16       8      11      14      11       2
       2       3       1       3       1       5      11      11       5       5       3
       2       2       1       3       2       8       7       0      13      15       2
       1       1       3       3       2      11      15      11       8       2       2
       3       1       1       1       2      10       3       2       2       2       3
       1       3       3       3       1       6       3       3       6       4       2
       2       3       1       1       1       7      10       2      16      12       2
       2       2       3       3       3       3      16       0       5       0       2
       3       2       2       2       3      16       7      16      11      10       2
       2       3       1       1       3      15      16       9       4      15       2
       1       1       2       3       3      13       1       6      16      14       2
       1       2       3       2       3      16       8       8       3       3       3
       2       1       3       2       2       0       3      15       7       7       3
       3       3       1       2       2       5      13       0      11      14       2
       1       2       2       2       2       8       4       6       4      12       2
       2       1       1       3       1       0      12      11       6      11       2
       3       3       1       1       1      16       6       3       4       3       2
       2       2       2       3       3       4      16      12      12       3       2
       2       3       1       1       3       8      11       5      12       4       3
       1       1       3       3       3      15      14      13       9      14       2
       3       1       3       2       1       7       3       9       2       8       2
       2       1       3       1       2      16       2      12      12       6       2
       1       3       2       3       2      10       3       2      16      13       2
       2       2       3       3       1       2      13      11       0      12       2
       3       3       2       2       2       9      15       3       5      12       3
       3       1       2       2       2       1       9       5      12       8       3
       1       3       3       1       2      11       5      11      12      16       2
       1       1       2       2       3       2       4       6       9       9       3
       2       3       2       2       3       8       9      11      16      11       2
       2       3       1       3       3       9      14      15       6      12       2
       3       1       3       3       3       6      15      16      16      12       2
       1       2       1       1       3      13       8      13       9      13       3
       3       3       1       1       1       1       4       6       8       4       2
       3       2       2       1       2       9       9      11      15       9       3
      73      62      51      79      80
      92      92      92      92     184
     379     288     244     434     335